p cnf 158 269
e 1 2 3 4 5 6 7 8 9 10 11 12 13 14 15 16 17 18 19 20 21 22 23 24 25 26 27 28 29 30 31 32 33 34 35 36 37 38 39 40 41 42 43 44 45 46 47 48 49 50 51 52 53 54 55 56 57 58 59 60 61 62 63 64 65 66 67 68 69 70 71 72 73 74 75 76 77 78 79 80 81 82 83 84 85 86 87 88 89 90 91 92 93 94 95 96 97 98 99 100 101 102 103 104 105 106 107 108 109 110 111 112 113 114 115 116 117 118 119 120 121 122 123 124 125 126 127 128 129 130 131 132 133 134 135 136 137 138 139 140 141 142 143 144 145 146 147 148 149 150 151 152 153 154 155 156 157 158 0
-12 0
-76 0
-85 0
102 0
-29 0
-32 0
-37 0
-70 0
-100 0
-21 0
-33 0
-64 0
-91 0
107 0
-144 0
-5 0
-35 0
-42 0
110 0
-137 0
-23 0
-30 0
-27 0
-88 0
-132 0
105 0
-135 0
1 0
-19 0
-17 0
-10 0
-24 0
108 0
114 0
-141 0
-116 0
-2 0
-79 0
-82 0
112 0
-143 0
-22 0
-67 0
111 0
-34 0
-73 0
-16 0
-36 0
-131 0
106 0
-133 0
-14 0
-15 0
-139 0
-138 0
-134 0
-158 0
-26 0
-41 0
-28 0
-31 0
-40 0
-61 0
146 0
-8 0
-140 0
-136 0
-4 0
103 0
-13 0
-18 0
-94 0
109 0
115 0
-142 0
-11 0
-3 0
-20 0
-6 0
-7 0
-9 0
-25 0
-39 0
101 0
-145 0
-43 0
104 0
113 0
-38 0
-97 0
-59 60 0
59 -60 0
-62 63 0
62 -63 0
-65 66 0
65 -66 0
-68 69 0
68 -69 0
-71 72 0
71 -72 0
-74 75 0
74 -75 0
-77 78 0
77 -78 0
-80 81 0
80 -81 0
-83 84 0
83 -84 0
-86 87 0
86 -87 0
-89 90 0
89 -90 0
-92 93 0
92 -93 0
-95 96 0
95 -96 0
-98 99 0
98 -99 0
44 -60 0
44 -63 0
44 -66 0
44 -69 0
44 -72 0
44 -75 0
44 -78 0
44 -81 0
44 -84 0
44 -87 0
44 -90 0
44 -93 0
44 -96 0
44 -99 0
45 -60 0
46 -63 0
47 -66 0
48 -69 0
49 -72 0
50 -75 0
51 -78 0
52 -81 0
53 -84 0
54 -87 0
55 -90 0
56 -93 0
57 -96 0
58 -99 0
147 -60 -63 -66 0
-147 60 0
-147 63 0
-147 66 0
148 -72 -75 -78 0
-148 72 0
-148 75 0
-148 78 0
149 -81 -84 -87 0
-149 81 0
-149 84 0
-149 87 0
150 -93 -96 -99 0
-150 93 0
-150 96 0
-150 99 0
151 -63 -75 0
-151 63 0
-151 75 0
152 -84 -96 0
-152 84 0
-152 96 0
153 -66 -69 -78 0
-153 66 0
-153 69 0
-153 78 0
154 -87 -90 -99 0
-154 87 0
-154 90 0
-154 99 0
155 -60 -78 0
-155 60 0
-155 78 0
156 -81 -99 0
-156 81 0
-156 99 0
157 -66 -72 0
-157 66 0
-157 72 0
147 148 149 150 151 152 153 154 155 156 157 0
-45 117 0
45 -117 0
-46 118 0
-117 118 0
46 -118 117 0
-46 -117 0
-47 119 0
-118 119 0
47 -119 118 0
-47 -118 0
-48 120 0
-119 120 0
48 -120 119 0
-48 -119 0
-49 121 0
-120 121 0
49 -121 120 0
-49 -120 0
-50 122 0
-121 122 0
50 -122 121 0
-50 -121 0
-51 123 0
-122 123 0
51 -123 122 0
-51 -122 0
-52 124 0
-123 124 0
52 -124 123 0
-52 -123 0
-53 125 0
-124 125 0
53 -125 124 0
-53 -124 0
-54 126 0
-125 126 0
54 -126 125 0
-54 -125 0
-55 127 0
-126 127 0
55 -127 126 0
-55 -126 0
-56 128 0
-127 128 0
56 -128 127 0
-56 -127 0
-57 129 0
-128 129 0
57 -129 128 0
-57 -128 0
-58 130 0
-129 130 0
58 -130 129 0
-58 -129 0
-44 130 0
-45 60 0
-45 44 0
-46 63 0
-46 44 0
-47 66 0
-47 44 0
-48 69 0
-48 44 0
-49 72 0
-49 44 0
-50 75 0
-50 44 0
-51 78 0
-51 44 0
-52 81 0
-52 44 0
-53 84 0
-53 44 0
-54 87 0
-54 44 0
-55 90 0
-55 44 0
-56 93 0
-56 44 0
-57 96 0
-57 44 0
-58 99 0
-58 44 0
